*SENSE:Minimize
NAME          MODEL
ROWS
 N  OBJ
 G  C0000000
 G  C0000001
 G  C0000002
 G  C0000003
 G  C0000004
 G  C0000005
 G  C0000006
 G  C0000007
 G  C0000008
 G  C0000009
 G  C0000010
 G  C0000011
 G  C0000012
 G  C0000013
 G  C0000014
 G  C0000015
 G  C0000016
 G  C0000017
 G  C0000018
 G  C0000019
 G  C0000020
 G  C0000021
 G  C0000022
 G  C0000023
 G  C0000024
 G  C0000025
 G  C0000026
 G  C0000027
 G  C0000028
 G  C0000029
 G  C0000030
 G  C0000031
 G  C0000032
 G  C0000033
 G  C0000034
 G  C0000035
 G  C0000036
 G  C0000037
 G  C0000038
 G  C0000039
 G  C0000040
 G  C0000041
 G  C0000042
 G  C0000043
 G  C0000044
 G  C0000045
 G  C0000046
 G  C0000047
 G  C0000048
 G  C0000049
 G  C0000050
 G  C0000051
 G  C0000052
 G  C0000053
 G  C0000054
 G  C0000055
 G  C0000056
 G  C0000057
 G  C0000058
 G  C0000059
 G  C0000060
 G  C0000061
 G  C0000062
 G  C0000063
 G  C0000064
 G  C0000065
COLUMNS
    X0000001  C0000000   1.000000000000e+00
    X0000001  C0000001   1.000000000000e+00
    X0000001  C0000002   1.000000000000e+00
    X0000001  C0000003   1.000000000000e+00
    X0000001  C0000004   1.000000000000e+00
    X0000001  C0000005   1.000000000000e+00
    X0000001  C0000006   1.000000000000e+00
    X0000001  C0000007   1.000000000000e+00
    X0000001  C0000008   1.000000000000e+00
    X0000001  C0000009   1.000000000000e+00
    X0000001  C0000033   1.000000000000e+00
    X0000001  C0000034   1.000000000000e+00
    X0000001  C0000035   1.000000000000e+00
    X0000001  C0000036   1.000000000000e+00
    X0000001  C0000037   1.000000000000e+00
    X0000001  C0000038   1.000000000000e+00
    X0000001  C0000039   1.000000000000e+00
    X0000001  C0000040   1.000000000000e+00
    X0000001  C0000041   1.000000000000e+00
    X0000001  C0000042   1.000000000000e+00
    X0000001  C0000000   1.000000000000e+00
    X0000001  C0000001   1.000000000000e+00
    X0000001  C0000002   1.000000000000e+00
    X0000001  C0000003   1.000000000000e+00
    X0000001  C0000004   1.000000000000e+00
    X0000001  C0000005   1.000000000000e+00
    X0000001  C0000006   1.000000000000e+00
    X0000001  C0000007   1.000000000000e+00
    X0000001  C0000008   1.000000000000e+00
    X0000001  C0000009   1.000000000000e+00
    X0000001  C0000033   1.000000000000e+00
    X0000001  C0000034   1.000000000000e+00
    X0000001  C0000035   1.000000000000e+00
    X0000001  C0000036   1.000000000000e+00
    X0000001  C0000037   1.000000000000e+00
    X0000001  C0000038   1.000000000000e+00
    X0000001  C0000039   1.000000000000e+00
    X0000001  C0000040   1.000000000000e+00
    X0000001  C0000041   1.000000000000e+00
    X0000001  C0000042   1.000000000000e+00
    X0000001  OBJ        1.000000000000e+00
    MARK      'MARKER'                 'INTORG'
    X0000002  C0000000  -1.000000000000e+00
    X0000002  C0000010  -1.000000000000e+00
    X0000002  C0000017   1.000000000000e+00
    X0000002  C0000018   1.000000000000e+00
    X0000002  C0000025  -1.000000000000e+00
    X0000002  C0000026  -1.000000000000e+00
    X0000002  C0000033  -1.000000000000e+00
    X0000002  C0000043  -1.000000000000e+00
    X0000002  C0000050   1.000000000000e+00
    X0000002  C0000051   1.000000000000e+00
    X0000002  C0000058  -1.000000000000e+00
    X0000002  C0000059  -1.000000000000e+00
    MARK      'MARKER'                 'INTEND'
    MARK      'MARKER'                 'INTORG'
    X0000003  C0000004  -1.000000000000e+00
    X0000003  C0000012   1.000000000000e+00
    X0000003  C0000013  -1.000000000000e+00
    X0000003  C0000017  -1.000000000000e+00
    X0000003  C0000019   1.000000000000e+00
    X0000003  C0000025   1.000000000000e+00
    X0000003  C0000027  -1.000000000000e+00
    X0000003  C0000037  -1.000000000000e+00
    X0000003  C0000045   1.000000000000e+00
    X0000003  C0000046  -1.000000000000e+00
    X0000003  C0000050  -1.000000000000e+00
    X0000003  C0000052   1.000000000000e+00
    X0000003  C0000058   1.000000000000e+00
    X0000003  C0000060  -1.000000000000e+00
    MARK      'MARKER'                 'INTEND'
    MARK      'MARKER'                 'INTORG'
    X0000004  C0000007  -1.000000000000e+00
    X0000004  C0000015  -1.000000000000e+00
    X0000004  C0000018  -1.000000000000e+00
    X0000004  C0000019  -1.000000000000e+00
    X0000004  C0000026   1.000000000000e+00
    X0000004  C0000027   1.000000000000e+00
    X0000004  C0000040  -1.000000000000e+00
    X0000004  C0000048  -1.000000000000e+00
    X0000004  C0000051  -1.000000000000e+00
    X0000004  C0000052  -1.000000000000e+00
    X0000004  C0000059   1.000000000000e+00
    X0000004  C0000060   1.000000000000e+00
    MARK      'MARKER'                 'INTEND'
    MARK      'MARKER'                 'INTORG'
    X0000005  C0000001  -1.000000000000e+00
    X0000005  C0000010   1.000000000000e+00
    X0000005  C0000011  -1.000000000000e+00
    X0000005  C0000020   1.000000000000e+00
    X0000005  C0000021   1.000000000000e+00
    X0000005  C0000028  -1.000000000000e+00
    X0000005  C0000029  -1.000000000000e+00
    X0000005  C0000034  -1.000000000000e+00
    X0000005  C0000043   1.000000000000e+00
    X0000005  C0000044  -1.000000000000e+00
    X0000005  C0000053   1.000000000000e+00
    X0000005  C0000054   1.000000000000e+00
    X0000005  C0000061  -1.000000000000e+00
    X0000005  C0000062  -1.000000000000e+00
    MARK      'MARKER'                 'INTEND'
    MARK      'MARKER'                 'INTORG'
    X0000006  C0000003  -1.000000000000e+00
    X0000006  C0000012  -1.000000000000e+00
    X0000006  C0000020  -1.000000000000e+00
    X0000006  C0000022   1.000000000000e+00
    X0000006  C0000028   1.000000000000e+00
    X0000006  C0000030  -1.000000000000e+00
    X0000006  C0000036  -1.000000000000e+00
    X0000006  C0000045  -1.000000000000e+00
    X0000006  C0000053  -1.000000000000e+00
    X0000006  C0000055   1.000000000000e+00
    X0000006  C0000061   1.000000000000e+00
    X0000006  C0000063  -1.000000000000e+00
    MARK      'MARKER'                 'INTEND'
    MARK      'MARKER'                 'INTORG'
    X0000007  C0000008  -1.000000000000e+00
    X0000007  C0000015   1.000000000000e+00
    X0000007  C0000016  -1.000000000000e+00
    X0000007  C0000021  -1.000000000000e+00
    X0000007  C0000022  -1.000000000000e+00
    X0000007  C0000029   1.000000000000e+00
    X0000007  C0000030   1.000000000000e+00
    X0000007  C0000041  -1.000000000000e+00
    X0000007  C0000048   1.000000000000e+00
    X0000007  C0000049  -1.000000000000e+00
    X0000007  C0000054  -1.000000000000e+00
    X0000007  C0000055  -1.000000000000e+00
    X0000007  C0000062   1.000000000000e+00
    X0000007  C0000063   1.000000000000e+00
    MARK      'MARKER'                 'INTEND'
    MARK      'MARKER'                 'INTORG'
    X0000008  C0000002  -1.000000000000e+00
    X0000008  C0000011   1.000000000000e+00
    X0000008  C0000023   1.000000000000e+00
    X0000008  C0000031  -1.000000000000e+00
    X0000008  C0000035  -1.000000000000e+00
    X0000008  C0000044   1.000000000000e+00
    X0000008  C0000056   1.000000000000e+00
    X0000008  C0000064  -1.000000000000e+00
    MARK      'MARKER'                 'INTEND'
    MARK      'MARKER'                 'INTORG'
    X0000009  C0000006  -1.000000000000e+00
    X0000009  C0000014   1.000000000000e+00
    X0000009  C0000023  -1.000000000000e+00
    X0000009  C0000031   1.000000000000e+00
    X0000009  C0000039  -1.000000000000e+00
    X0000009  C0000047   1.000000000000e+00
    X0000009  C0000056  -1.000000000000e+00
    X0000009  C0000064   1.000000000000e+00
    MARK      'MARKER'                 'INTEND'
    MARK      'MARKER'                 'INTORG'
    X0000010  C0000005  -1.000000000000e+00
    X0000010  C0000013   1.000000000000e+00
    X0000010  C0000014  -1.000000000000e+00
    X0000010  C0000024   1.000000000000e+00
    X0000010  C0000032  -1.000000000000e+00
    X0000010  C0000038  -1.000000000000e+00
    X0000010  C0000046   1.000000000000e+00
    X0000010  C0000047  -1.000000000000e+00
    X0000010  C0000057   1.000000000000e+00
    X0000010  C0000065  -1.000000000000e+00
    MARK      'MARKER'                 'INTEND'
    MARK      'MARKER'                 'INTORG'
    X0000011  C0000009  -1.000000000000e+00
    X0000011  C0000016   1.000000000000e+00
    X0000011  C0000024  -1.000000000000e+00
    X0000011  C0000032   1.000000000000e+00
    X0000011  C0000042  -1.000000000000e+00
    X0000011  C0000049   1.000000000000e+00
    X0000011  C0000057  -1.000000000000e+00
    X0000011  C0000065   1.000000000000e+00
    MARK      'MARKER'                 'INTEND'
    MARK      'MARKER'                 'INTORG'
    X0000012  C0000017  -1.000000000000e+03
    X0000012  C0000025   1.000000000000e+03
    X0000012  C0000050  -1.000000000000e+03
    X0000012  C0000058   1.000000000000e+03
    MARK      'MARKER'                 'INTEND'
    MARK      'MARKER'                 'INTORG'
    X0000013  C0000018  -1.000000000000e+03
    X0000013  C0000026   1.000000000000e+03
    X0000013  C0000051  -1.000000000000e+03
    X0000013  C0000059   1.000000000000e+03
    MARK      'MARKER'                 'INTEND'
    MARK      'MARKER'                 'INTORG'
    X0000014  C0000019  -1.000000000000e+03
    X0000014  C0000027   1.000000000000e+03
    X0000014  C0000052  -1.000000000000e+03
    X0000014  C0000060   1.000000000000e+03
    MARK      'MARKER'                 'INTEND'
    MARK      'MARKER'                 'INTORG'
    X0000015  C0000020  -1.000000000000e+03
    X0000015  C0000028   1.000000000000e+03
    X0000015  C0000053  -1.000000000000e+03
    X0000015  C0000061   1.000000000000e+03
    MARK      'MARKER'                 'INTEND'
    MARK      'MARKER'                 'INTORG'
    X0000016  C0000021  -1.000000000000e+03
    X0000016  C0000029   1.000000000000e+03
    X0000016  C0000054  -1.000000000000e+03
    X0000016  C0000062   1.000000000000e+03
    MARK      'MARKER'                 'INTEND'
    MARK      'MARKER'                 'INTORG'
    X0000017  C0000022  -1.000000000000e+03
    X0000017  C0000030   1.000000000000e+03
    X0000017  C0000055  -1.000000000000e+03
    X0000017  C0000063   1.000000000000e+03
    MARK      'MARKER'                 'INTEND'
    MARK      'MARKER'                 'INTORG'
    X0000018  C0000023  -1.000000000000e+03
    X0000018  C0000031   1.000000000000e+03
    X0000018  C0000056  -1.000000000000e+03
    X0000018  C0000064   1.000000000000e+03
    MARK      'MARKER'                 'INTEND'
    MARK      'MARKER'                 'INTORG'
    X0000019  C0000024  -1.000000000000e+03
    X0000019  C0000032   1.000000000000e+03
    X0000019  C0000057  -1.000000000000e+03
    X0000019  C0000065   1.000000000000e+03
    MARK      'MARKER'                 'INTEND'
RHS
    RHS       C0000000   1.000000000000e+01
    RHS       C0000001   8.000000000000e+00
    RHS       C0000002   4.000000000000e+00
    RHS       C0000003   8.000000000000e+00
    RHS       C0000004   3.000000000000e+00
    RHS       C0000005   5.000000000000e+00
    RHS       C0000006   6.000000000000e+00
    RHS       C0000007   4.000000000000e+00
    RHS       C0000008   7.000000000000e+00
    RHS       C0000009   3.000000000000e+00
    RHS       C0000010   1.000000000000e+01
    RHS       C0000011   8.000000000000e+00
    RHS       C0000012   8.000000000000e+00
    RHS       C0000013   3.000000000000e+00
    RHS       C0000014   5.000000000000e+00
    RHS       C0000015   4.000000000000e+00
    RHS       C0000016   7.000000000000e+00
    RHS       C0000017  -9.970000000000e+02
    RHS       C0000018  -9.960000000000e+02
    RHS       C0000019  -9.960000000000e+02
    RHS       C0000020  -9.920000000000e+02
    RHS       C0000021  -9.930000000000e+02
    RHS       C0000022  -9.930000000000e+02
    RHS       C0000023  -9.940000000000e+02
    RHS       C0000024  -9.970000000000e+02
    RHS       C0000025   1.000000000000e+01
    RHS       C0000026   1.000000000000e+01
    RHS       C0000027   3.000000000000e+00
    RHS       C0000028   8.000000000000e+00
    RHS       C0000029   8.000000000000e+00
    RHS       C0000030   8.000000000000e+00
    RHS       C0000031   4.000000000000e+00
    RHS       C0000032   5.000000000000e+00
    RHS       C0000033   1.000000000000e+01
    RHS       C0000034   8.000000000000e+00
    RHS       C0000035   4.000000000000e+00
    RHS       C0000036   8.000000000000e+00
    RHS       C0000037   3.000000000000e+00
    RHS       C0000038   5.000000000000e+00
    RHS       C0000039   6.000000000000e+00
    RHS       C0000040   4.000000000000e+00
    RHS       C0000041   7.000000000000e+00
    RHS       C0000042   3.000000000000e+00
    RHS       C0000043   1.000000000000e+01
    RHS       C0000044   8.000000000000e+00
    RHS       C0000045   8.000000000000e+00
    RHS       C0000046   3.000000000000e+00
    RHS       C0000047   5.000000000000e+00
    RHS       C0000048   4.000000000000e+00
    RHS       C0000049   7.000000000000e+00
    RHS       C0000050  -9.970000000000e+02
    RHS       C0000051  -9.960000000000e+02
    RHS       C0000052  -9.960000000000e+02
    RHS       C0000053  -9.920000000000e+02
    RHS       C0000054  -9.930000000000e+02
    RHS       C0000055  -9.930000000000e+02
    RHS       C0000056  -9.940000000000e+02
    RHS       C0000057  -9.970000000000e+02
    RHS       C0000058   1.000000000000e+01
    RHS       C0000059   1.000000000000e+01
    RHS       C0000060   3.000000000000e+00
    RHS       C0000061   8.000000000000e+00
    RHS       C0000062   8.000000000000e+00
    RHS       C0000063   8.000000000000e+00
    RHS       C0000064   4.000000000000e+00
    RHS       C0000065   5.000000000000e+00
BOUNDS
 LO BND       X0000002   0.000000000000e+00
 LO BND       X0000003   0.000000000000e+00
 LO BND       X0000004   0.000000000000e+00
 LO BND       X0000005   0.000000000000e+00
 LO BND       X0000006   0.000000000000e+00
 LO BND       X0000007   0.000000000000e+00
 LO BND       X0000008   0.000000000000e+00
 LO BND       X0000009   0.000000000000e+00
 LO BND       X0000010   0.000000000000e+00
 LO BND       X0000011   0.000000000000e+00
 BV BND       X0000012
 BV BND       X0000013
 BV BND       X0000014
 BV BND       X0000015
 BV BND       X0000016
 BV BND       X0000017
 BV BND       X0000018
 BV BND       X0000019
ENDATA
